p cnf 22 43
-7 -13 -2 -17 0
-14 18 -17 0
-16 19 -13 0
-19 -6 -11 0
-5 -19 -9 0
-5 -19 -10 0
-7 -19 -2 0
-19 -2 -10 0
-16 -14 20 0
-6 -20 -10 0
-7 -20 -3 0
-7 -4 -20 0
-8 -6 -20 0
-6 -20 -11 0
-8 -4 -20 0
-6 21 -18 0
-21 -11 0
-7 -21 0
-21 -10 0
-8 -21 0
-21 -9 0
-3 -19 22 0
-22 -9 0
-22 -11 0
-7 -22 0
-8 -22 0
-22 -10 0
-4 -18 23 0
-7 -23 0
-23 -10 0
-8 -23 0
-23 -9 0
-23 -11 0
24 -3 -18 0
-24 -7 0
-24 -10 0
-8 -24 0
-24 -11 0
25 -4 -19 0
-8 -25 0
-9 -25 0
-11 -25 0
-7 -25 0
